c A SAT instance generated from a 3-CNF formula that had 25 clauses and 25 variables
p cnf 25 25
-22 6 5 0
6 -4 -13 0
-19 -24 -7 0
22 15 -6 0
5 -18 9 0
23 4 -2 0
-12 10 14 0
-12 -19 22 0
-1 18 -25 0
-12 9 17 0
-17 -5 -20 0
-20 -25 8 0
-5 4 -8 0
-9 -20 8 0
2 1 -7 0
-12 -22 20 0
-6 -4 -22 0
-23 19 10 0
-5 12 2 0
-23 4 8 0
-14 5 -18 0
18 20 24 0
-15 -19 -22 0
15 -5 -23 0
-1 -21 3 0
%
0

65 21 44 49 87 74 69 85 17 88 99 78 95 17 14 34 87 50 44 100 62 42 29 64 11
